Minimize

COST_0


Subject To

a0: COST_0 - 0 - 55 v_0_0_2_0_0 - 60 v_0_0_2_0_1 - 50 v_0_0_2_0_2 - 58 v_0_0_2_0_3 - 55 v_0_0_2_1_0 - 60 v_0_0_2_1_1 - 50 v_0_0_2_1_2 - 58 v_0_0_2_1_3 - 55 v_0_0_2_2_0 - 60 v_0_0_2_2_1 - 50 v_0_0_2_2_2 - 58 v_0_0_2_2_3 - 55 v_0_0_2_3_0 - 60 v_0_0_2_3_1 - 50 v_0_0_2_3_2 - 58 v_0_0_2_3_3 - 55 v_0_1_2_0_0 - 60 v_0_1_2_0_1 - 50 v_0_1_2_0_2 - 58 v_0_1_2_0_3 - 55 v_0_1_2_1_0 - 60 v_0_1_2_1_1 - 50 v_0_1_2_1_2 - 58 v_0_1_2_1_3 - 55 v_0_1_2_2_0 - 60 v_0_1_2_2_1 - 50 v_0_1_2_2_2 - 58 v_0_1_2_2_3 - 55 v_0_1_2_3_0 - 60 v_0_1_2_3_1 - 50 v_0_1_2_3_2 - 58 v_0_1_2_3_3 - 55 v_0_2_2_0_0 - 60 v_0_2_2_0_1 - 50 v_0_2_2_0_2 - 58 v_0_2_2_0_3 - 55 v_0_2_2_1_0 - 60 v_0_2_2_1_1 - 50 v_0_2_2_1_2 - 58 v_0_2_2_1_3 - 55 v_0_2_2_2_0 - 60 v_0_2_2_2_1 - 50 v_0_2_2_2_2 - 58 v_0_2_2_2_3 - 55 v_0_2_2_3_0 - 60 v_0_2_2_3_1 - 50 v_0_2_2_3_2 - 58 v_0_2_2_3_3 - 55 v_0_3_2_0_0 - 60 v_0_3_2_0_1 - 50 v_0_3_2_0_2 - 58 v_0_3_2_0_3 - 55 v_0_3_2_1_0 - 60 v_0_3_2_1_1 - 50 v_0_3_2_1_2 - 58 v_0_3_2_1_3 - 55 v_0_3_2_2_0 - 60 v_0_3_2_2_1 - 50 v_0_3_2_2_2 - 58 v_0_3_2_2_3 - 55 v_0_3_2_3_0 - 60 v_0_3_2_3_1 - 50 v_0_3_2_3_2 - 58 v_0_3_2_3_3 - 80 v_1_0_2_0_2 - 75 v_1_0_2_0_4 - 70 v_1_0_2_0_5 - 80 v_1_0_2_1_2 - 75 v_1_0_2_1_4 - 70 v_1_0_2_1_5 - 80 v_1_0_2_2_2 - 75 v_1_0_2_2_4 - 70 v_1_0_2_2_5 - 80 v_1_0_2_3_2 - 75 v_1_0_2_3_4 - 70 v_1_0_2_3_5 - 80 v_1_1_2_0_2 - 75 v_1_1_2_0_4 - 70 v_1_1_2_0_5 - 80 v_1_1_2_1_2 - 75 v_1_1_2_1_4 - 70 v_1_1_2_1_5 - 80 v_1_1_2_2_2 - 75 v_1_1_2_2_4 - 70 v_1_1_2_2_5 - 80 v_1_1_2_3_2 - 75 v_1_1_2_3_4 - 70 v_1_1_2_3_5 - 80 v_1_2_2_0_2 - 75 v_1_2_2_0_4 - 70 v_1_2_2_0_5 - 80 v_1_2_2_1_2 - 75 v_1_2_2_1_4 - 70 v_1_2_2_1_5 - 80 v_1_2_2_2_2 - 75 v_1_2_2_2_4 - 70 v_1_2_2_2_5 - 80 v_1_2_2_3_2 - 75 v_1_2_2_3_4 - 70 v_1_2_2_3_5 - 80 v_1_3_2_0_2 - 75 v_1_3_2_0_4 - 70 v_1_3_2_0_5 - 80 v_1_3_2_1_2 - 75 v_1_3_2_1_4 - 70 v_1_3_2_1_5 - 80 v_1_3_2_2_2 - 75 v_1_3_2_2_4 - 70 v_1_3_2_2_5 - 80 v_1_3_2_3_2 - 75 v_1_3_2_3_4 - 70 v_1_3_2_3_5 = 0
b0: CO2_0 - 0 - 770 v_0_0_2_0_0 - 750 v_0_0_2_0_1 - 630 v_0_0_2_0_2 - 620 v_0_0_2_0_3 - 770 v_0_0_2_1_0 - 750 v_0_0_2_1_1 - 630 v_0_0_2_1_2 - 620 v_0_0_2_1_3 - 770 v_0_0_2_2_0 - 750 v_0_0_2_2_1 - 630 v_0_0_2_2_2 - 620 v_0_0_2_2_3 - 770 v_0_0_2_3_0 - 750 v_0_0_2_3_1 - 630 v_0_0_2_3_2 - 620 v_0_0_2_3_3 - 770 v_0_1_2_0_0 - 750 v_0_1_2_0_1 - 630 v_0_1_2_0_2 - 620 v_0_1_2_0_3 - 770 v_0_1_2_1_0 - 750 v_0_1_2_1_1 - 630 v_0_1_2_1_2 - 620 v_0_1_2_1_3 - 770 v_0_1_2_2_0 - 750 v_0_1_2_2_1 - 630 v_0_1_2_2_2 - 620 v_0_1_2_2_3 - 770 v_0_1_2_3_0 - 750 v_0_1_2_3_1 - 630 v_0_1_2_3_2 - 620 v_0_1_2_3_3 - 770 v_0_2_2_0_0 - 750 v_0_2_2_0_1 - 630 v_0_2_2_0_2 - 620 v_0_2_2_0_3 - 770 v_0_2_2_1_0 - 750 v_0_2_2_1_1 - 630 v_0_2_2_1_2 - 620 v_0_2_2_1_3 - 770 v_0_2_2_2_0 - 750 v_0_2_2_2_1 - 630 v_0_2_2_2_2 - 620 v_0_2_2_2_3 - 770 v_0_2_2_3_0 - 750 v_0_2_2_3_1 - 630 v_0_2_2_3_2 - 620 v_0_2_2_3_3 - 770 v_0_3_2_0_0 - 750 v_0_3_2_0_1 - 630 v_0_3_2_0_2 - 620 v_0_3_2_0_3 - 770 v_0_3_2_1_0 - 750 v_0_3_2_1_1 - 630 v_0_3_2_1_2 - 620 v_0_3_2_1_3 - 770 v_0_3_2_2_0 - 750 v_0_3_2_2_1 - 630 v_0_3_2_2_2 - 620 v_0_3_2_2_3 - 770 v_0_3_2_3_0 - 750 v_0_3_2_3_1 - 630 v_0_3_2_3_2 - 620 v_0_3_2_3_3 - 625 v_1_0_2_0_2 - 450 v_1_0_2_0_4 - 460 v_1_0_2_0_5 - 625 v_1_0_2_1_2 - 450 v_1_0_2_1_4 - 460 v_1_0_2_1_5 - 625 v_1_0_2_2_2 - 450 v_1_0_2_2_4 - 460 v_1_0_2_2_5 - 625 v_1_0_2_3_2 - 450 v_1_0_2_3_4 - 460 v_1_0_2_3_5 - 625 v_1_1_2_0_2 - 450 v_1_1_2_0_4 - 460 v_1_1_2_0_5 - 625 v_1_1_2_1_2 - 450 v_1_1_2_1_4 - 460 v_1_1_2_1_5 - 625 v_1_1_2_2_2 - 450 v_1_1_2_2_4 - 460 v_1_1_2_2_5 - 625 v_1_1_2_3_2 - 450 v_1_1_2_3_4 - 460 v_1_1_2_3_5 - 625 v_1_2_2_0_2 - 450 v_1_2_2_0_4 - 460 v_1_2_2_0_5 - 625 v_1_2_2_1_2 - 450 v_1_2_2_1_4 - 460 v_1_2_2_1_5 - 625 v_1_2_2_2_2 - 450 v_1_2_2_2_4 - 460 v_1_2_2_2_5 - 625 v_1_2_2_3_2 - 450 v_1_2_2_3_4 - 460 v_1_2_2_3_5 - 625 v_1_3_2_0_2 - 450 v_1_3_2_0_4 - 460 v_1_3_2_0_5 - 625 v_1_3_2_1_2 - 450 v_1_3_2_1_4 - 460 v_1_3_2_1_5 - 625 v_1_3_2_2_2 - 450 v_1_3_2_2_4 - 460 v_1_3_2_2_5 - 625 v_1_3_2_3_2 - 450 v_1_3_2_3_4 - 460 v_1_3_2_3_5 = 0
c0: TIME_0 - 0 - 202 v_0_0_2_0_0 - 202 v_0_0_2_0_1 - 166 v_0_0_2_0_2 - 166 v_0_0_2_0_3 - 202 v_0_0_2_1_0 - 202 v_0_0_2_1_1 - 166 v_0_0_2_1_2 - 166 v_0_0_2_1_3 - 202 v_0_0_2_2_0 - 202 v_0_0_2_2_1 - 166 v_0_0_2_2_2 - 166 v_0_0_2_2_3 - 202 v_0_0_2_3_0 - 202 v_0_0_2_3_1 - 166 v_0_0_2_3_2 - 166 v_0_0_2_3_3 - 202 v_0_1_2_0_0 - 202 v_0_1_2_0_1 - 166 v_0_1_2_0_2 - 166 v_0_1_2_0_3 - 202 v_0_1_2_1_0 - 202 v_0_1_2_1_1 - 166 v_0_1_2_1_2 - 166 v_0_1_2_1_3 - 202 v_0_1_2_2_0 - 202 v_0_1_2_2_1 - 166 v_0_1_2_2_2 - 166 v_0_1_2_2_3 - 202 v_0_1_2_3_0 - 202 v_0_1_2_3_1 - 166 v_0_1_2_3_2 - 166 v_0_1_2_3_3 - 202 v_0_2_2_0_0 - 202 v_0_2_2_0_1 - 166 v_0_2_2_0_2 - 166 v_0_2_2_0_3 - 202 v_0_2_2_1_0 - 202 v_0_2_2_1_1 - 166 v_0_2_2_1_2 - 166 v_0_2_2_1_3 - 202 v_0_2_2_2_0 - 202 v_0_2_2_2_1 - 166 v_0_2_2_2_2 - 166 v_0_2_2_2_3 - 202 v_0_2_2_3_0 - 202 v_0_2_2_3_1 - 166 v_0_2_2_3_2 - 166 v_0_2_2_3_3 - 202 v_0_3_2_0_0 - 202 v_0_3_2_0_1 - 166 v_0_3_2_0_2 - 166 v_0_3_2_0_3 - 202 v_0_3_2_1_0 - 202 v_0_3_2_1_1 - 166 v_0_3_2_1_2 - 166 v_0_3_2_1_3 - 202 v_0_3_2_2_0 - 202 v_0_3_2_2_1 - 166 v_0_3_2_2_2 - 166 v_0_3_2_2_3 - 202 v_0_3_2_3_0 - 202 v_0_3_2_3_1 - 166 v_0_3_2_3_2 - 166 v_0_3_2_3_3 - 166 v_1_0_2_0_2 - 142 v_1_0_2_0_4 - 142 v_1_0_2_0_5 - 166 v_1_0_2_1_2 - 142 v_1_0_2_1_4 - 142 v_1_0_2_1_5 - 166 v_1_0_2_2_2 - 142 v_1_0_2_2_4 - 142 v_1_0_2_2_5 - 166 v_1_0_2_3_2 - 142 v_1_0_2_3_4 - 142 v_1_0_2_3_5 - 166 v_1_1_2_0_2 - 142 v_1_1_2_0_4 - 142 v_1_1_2_0_5 - 166 v_1_1_2_1_2 - 142 v_1_1_2_1_4 - 142 v_1_1_2_1_5 - 166 v_1_1_2_2_2 - 142 v_1_1_2_2_4 - 142 v_1_1_2_2_5 - 166 v_1_1_2_3_2 - 142 v_1_1_2_3_4 - 142 v_1_1_2_3_5 - 166 v_1_2_2_0_2 - 142 v_1_2_2_0_4 - 142 v_1_2_2_0_5 - 166 v_1_2_2_1_2 - 142 v_1_2_2_1_4 - 142 v_1_2_2_1_5 - 166 v_1_2_2_2_2 - 142 v_1_2_2_2_4 - 142 v_1_2_2_2_5 - 166 v_1_2_2_3_2 - 142 v_1_2_2_3_4 - 142 v_1_2_2_3_5 - 166 v_1_3_2_0_2 - 142 v_1_3_2_0_4 - 142 v_1_3_2_0_5 - 166 v_1_3_2_1_2 - 142 v_1_3_2_1_4 - 142 v_1_3_2_1_5 - 166 v_1_3_2_2_2 - 142 v_1_3_2_2_4 - 142 v_1_3_2_2_5 - 166 v_1_3_2_3_2 - 142 v_1_3_2_3_4 - 142 v_1_3_2_3_5 = 0
d0: x_0_0 + x_0_1 = 1
d1: x_1_1 + x_1_2 = 1
d2: x_2_3 = 1
e0: x_0_2 + x_0_3 = 0
e1: x_1_0 + x_1_3 = 0
e2: x_2_0 + x_2_1 + x_2_2 = 0
f0: w_0_0 + w_0_1 + w_0_2 + w_0_3 = 1
f1: w_1_2 + w_1_4 + w_1_5 = 1
g0: w_0_4 + w_0_5 = 0
g1: w_1_0 + w_1_1 + w_1_3 = 0
g2: w_2_0 + w_2_1 + w_2_2 + w_2_3 + w_2_4 + w_2_5 = 0
h0: x_0_0 + x_2_0 + w_0_0 - v_0_0_2_0_0 <= 2
h1: x_0_0 + x_2_0 + w_0_1 - v_0_0_2_0_1 <= 2
h2: x_0_0 + x_2_0 + w_0_2 - v_0_0_2_0_2 <= 2
h3: x_0_0 + x_2_0 + w_0_3 - v_0_0_2_0_3 <= 2
h4: x_0_0 + x_2_0 + w_0_4 - v_0_0_2_0_4 <= 2
h5: x_0_0 + x_2_0 + w_0_5 - v_0_0_2_0_5 <= 2
h6: x_0_0 + x_2_1 + w_0_0 - v_0_0_2_1_0 <= 2
h7: x_0_0 + x_2_1 + w_0_1 - v_0_0_2_1_1 <= 2
h8: x_0_0 + x_2_1 + w_0_2 - v_0_0_2_1_2 <= 2
h9: x_0_0 + x_2_1 + w_0_3 - v_0_0_2_1_3 <= 2
h10: x_0_0 + x_2_1 + w_0_4 - v_0_0_2_1_4 <= 2
h11: x_0_0 + x_2_1 + w_0_5 - v_0_0_2_1_5 <= 2
h12: x_0_0 + x_2_2 + w_0_0 - v_0_0_2_2_0 <= 2
h13: x_0_0 + x_2_2 + w_0_1 - v_0_0_2_2_1 <= 2
h14: x_0_0 + x_2_2 + w_0_2 - v_0_0_2_2_2 <= 2
h15: x_0_0 + x_2_2 + w_0_3 - v_0_0_2_2_3 <= 2
h16: x_0_0 + x_2_2 + w_0_4 - v_0_0_2_2_4 <= 2
h17: x_0_0 + x_2_2 + w_0_5 - v_0_0_2_2_5 <= 2
h18: x_0_0 + x_2_3 + w_0_0 - v_0_0_2_3_0 <= 2
h19: x_0_0 + x_2_3 + w_0_1 - v_0_0_2_3_1 <= 2
h20: x_0_0 + x_2_3 + w_0_2 - v_0_0_2_3_2 <= 2
h21: x_0_0 + x_2_3 + w_0_3 - v_0_0_2_3_3 <= 2
h22: x_0_0 + x_2_3 + w_0_4 - v_0_0_2_3_4 <= 2
h23: x_0_0 + x_2_3 + w_0_5 - v_0_0_2_3_5 <= 2
h24: x_0_1 + x_2_0 + w_0_0 - v_0_1_2_0_0 <= 2
h25: x_0_1 + x_2_0 + w_0_1 - v_0_1_2_0_1 <= 2
h26: x_0_1 + x_2_0 + w_0_2 - v_0_1_2_0_2 <= 2
h27: x_0_1 + x_2_0 + w_0_3 - v_0_1_2_0_3 <= 2
h28: x_0_1 + x_2_0 + w_0_4 - v_0_1_2_0_4 <= 2
h29: x_0_1 + x_2_0 + w_0_5 - v_0_1_2_0_5 <= 2
h30: x_0_1 + x_2_1 + w_0_0 - v_0_1_2_1_0 <= 2
h31: x_0_1 + x_2_1 + w_0_1 - v_0_1_2_1_1 <= 2
h32: x_0_1 + x_2_1 + w_0_2 - v_0_1_2_1_2 <= 2
h33: x_0_1 + x_2_1 + w_0_3 - v_0_1_2_1_3 <= 2
h34: x_0_1 + x_2_1 + w_0_4 - v_0_1_2_1_4 <= 2
h35: x_0_1 + x_2_1 + w_0_5 - v_0_1_2_1_5 <= 2
h36: x_0_1 + x_2_2 + w_0_0 - v_0_1_2_2_0 <= 2
h37: x_0_1 + x_2_2 + w_0_1 - v_0_1_2_2_1 <= 2
h38: x_0_1 + x_2_2 + w_0_2 - v_0_1_2_2_2 <= 2
h39: x_0_1 + x_2_2 + w_0_3 - v_0_1_2_2_3 <= 2
h40: x_0_1 + x_2_2 + w_0_4 - v_0_1_2_2_4 <= 2
h41: x_0_1 + x_2_2 + w_0_5 - v_0_1_2_2_5 <= 2
h42: x_0_1 + x_2_3 + w_0_0 - v_0_1_2_3_0 <= 2
h43: x_0_1 + x_2_3 + w_0_1 - v_0_1_2_3_1 <= 2
h44: x_0_1 + x_2_3 + w_0_2 - v_0_1_2_3_2 <= 2
h45: x_0_1 + x_2_3 + w_0_3 - v_0_1_2_3_3 <= 2
h46: x_0_1 + x_2_3 + w_0_4 - v_0_1_2_3_4 <= 2
h47: x_0_1 + x_2_3 + w_0_5 - v_0_1_2_3_5 <= 2
h48: x_0_2 + x_2_0 + w_0_0 - v_0_2_2_0_0 <= 2
h49: x_0_2 + x_2_0 + w_0_1 - v_0_2_2_0_1 <= 2
h50: x_0_2 + x_2_0 + w_0_2 - v_0_2_2_0_2 <= 2
h51: x_0_2 + x_2_0 + w_0_3 - v_0_2_2_0_3 <= 2
h52: x_0_2 + x_2_0 + w_0_4 - v_0_2_2_0_4 <= 2
h53: x_0_2 + x_2_0 + w_0_5 - v_0_2_2_0_5 <= 2
h54: x_0_2 + x_2_1 + w_0_0 - v_0_2_2_1_0 <= 2
h55: x_0_2 + x_2_1 + w_0_1 - v_0_2_2_1_1 <= 2
h56: x_0_2 + x_2_1 + w_0_2 - v_0_2_2_1_2 <= 2
h57: x_0_2 + x_2_1 + w_0_3 - v_0_2_2_1_3 <= 2
h58: x_0_2 + x_2_1 + w_0_4 - v_0_2_2_1_4 <= 2
h59: x_0_2 + x_2_1 + w_0_5 - v_0_2_2_1_5 <= 2
h60: x_0_2 + x_2_2 + w_0_0 - v_0_2_2_2_0 <= 2
h61: x_0_2 + x_2_2 + w_0_1 - v_0_2_2_2_1 <= 2
h62: x_0_2 + x_2_2 + w_0_2 - v_0_2_2_2_2 <= 2
h63: x_0_2 + x_2_2 + w_0_3 - v_0_2_2_2_3 <= 2
h64: x_0_2 + x_2_2 + w_0_4 - v_0_2_2_2_4 <= 2
h65: x_0_2 + x_2_2 + w_0_5 - v_0_2_2_2_5 <= 2
h66: x_0_2 + x_2_3 + w_0_0 - v_0_2_2_3_0 <= 2
h67: x_0_2 + x_2_3 + w_0_1 - v_0_2_2_3_1 <= 2
h68: x_0_2 + x_2_3 + w_0_2 - v_0_2_2_3_2 <= 2
h69: x_0_2 + x_2_3 + w_0_3 - v_0_2_2_3_3 <= 2
h70: x_0_2 + x_2_3 + w_0_4 - v_0_2_2_3_4 <= 2
h71: x_0_2 + x_2_3 + w_0_5 - v_0_2_2_3_5 <= 2
h72: x_0_3 + x_2_0 + w_0_0 - v_0_3_2_0_0 <= 2
h73: x_0_3 + x_2_0 + w_0_1 - v_0_3_2_0_1 <= 2
h74: x_0_3 + x_2_0 + w_0_2 - v_0_3_2_0_2 <= 2
h75: x_0_3 + x_2_0 + w_0_3 - v_0_3_2_0_3 <= 2
h76: x_0_3 + x_2_0 + w_0_4 - v_0_3_2_0_4 <= 2
h77: x_0_3 + x_2_0 + w_0_5 - v_0_3_2_0_5 <= 2
h78: x_0_3 + x_2_1 + w_0_0 - v_0_3_2_1_0 <= 2
h79: x_0_3 + x_2_1 + w_0_1 - v_0_3_2_1_1 <= 2
h80: x_0_3 + x_2_1 + w_0_2 - v_0_3_2_1_2 <= 2
h81: x_0_3 + x_2_1 + w_0_3 - v_0_3_2_1_3 <= 2
h82: x_0_3 + x_2_1 + w_0_4 - v_0_3_2_1_4 <= 2
h83: x_0_3 + x_2_1 + w_0_5 - v_0_3_2_1_5 <= 2
h84: x_0_3 + x_2_2 + w_0_0 - v_0_3_2_2_0 <= 2
h85: x_0_3 + x_2_2 + w_0_1 - v_0_3_2_2_1 <= 2
h86: x_0_3 + x_2_2 + w_0_2 - v_0_3_2_2_2 <= 2
h87: x_0_3 + x_2_2 + w_0_3 - v_0_3_2_2_3 <= 2
h88: x_0_3 + x_2_2 + w_0_4 - v_0_3_2_2_4 <= 2
h89: x_0_3 + x_2_2 + w_0_5 - v_0_3_2_2_5 <= 2
h90: x_0_3 + x_2_3 + w_0_0 - v_0_3_2_3_0 <= 2
h91: x_0_3 + x_2_3 + w_0_1 - v_0_3_2_3_1 <= 2
h92: x_0_3 + x_2_3 + w_0_2 - v_0_3_2_3_2 <= 2
h93: x_0_3 + x_2_3 + w_0_3 - v_0_3_2_3_3 <= 2
h94: x_0_3 + x_2_3 + w_0_4 - v_0_3_2_3_4 <= 2
h95: x_0_3 + x_2_3 + w_0_5 - v_0_3_2_3_5 <= 2
h96: x_1_0 + x_2_0 + w_1_0 - v_1_0_2_0_0 <= 2
h97: x_1_0 + x_2_0 + w_1_1 - v_1_0_2_0_1 <= 2
h98: x_1_0 + x_2_0 + w_1_2 - v_1_0_2_0_2 <= 2
h99: x_1_0 + x_2_0 + w_1_3 - v_1_0_2_0_3 <= 2
h100: x_1_0 + x_2_0 + w_1_4 - v_1_0_2_0_4 <= 2
h101: x_1_0 + x_2_0 + w_1_5 - v_1_0_2_0_5 <= 2
h102: x_1_0 + x_2_1 + w_1_0 - v_1_0_2_1_0 <= 2
h103: x_1_0 + x_2_1 + w_1_1 - v_1_0_2_1_1 <= 2
h104: x_1_0 + x_2_1 + w_1_2 - v_1_0_2_1_2 <= 2
h105: x_1_0 + x_2_1 + w_1_3 - v_1_0_2_1_3 <= 2
h106: x_1_0 + x_2_1 + w_1_4 - v_1_0_2_1_4 <= 2
h107: x_1_0 + x_2_1 + w_1_5 - v_1_0_2_1_5 <= 2
h108: x_1_0 + x_2_2 + w_1_0 - v_1_0_2_2_0 <= 2
h109: x_1_0 + x_2_2 + w_1_1 - v_1_0_2_2_1 <= 2
h110: x_1_0 + x_2_2 + w_1_2 - v_1_0_2_2_2 <= 2
h111: x_1_0 + x_2_2 + w_1_3 - v_1_0_2_2_3 <= 2
h112: x_1_0 + x_2_2 + w_1_4 - v_1_0_2_2_4 <= 2
h113: x_1_0 + x_2_2 + w_1_5 - v_1_0_2_2_5 <= 2
h114: x_1_0 + x_2_3 + w_1_0 - v_1_0_2_3_0 <= 2
h115: x_1_0 + x_2_3 + w_1_1 - v_1_0_2_3_1 <= 2
h116: x_1_0 + x_2_3 + w_1_2 - v_1_0_2_3_2 <= 2
h117: x_1_0 + x_2_3 + w_1_3 - v_1_0_2_3_3 <= 2
h118: x_1_0 + x_2_3 + w_1_4 - v_1_0_2_3_4 <= 2
h119: x_1_0 + x_2_3 + w_1_5 - v_1_0_2_3_5 <= 2
h120: x_1_1 + x_2_0 + w_1_0 - v_1_1_2_0_0 <= 2
h121: x_1_1 + x_2_0 + w_1_1 - v_1_1_2_0_1 <= 2
h122: x_1_1 + x_2_0 + w_1_2 - v_1_1_2_0_2 <= 2
h123: x_1_1 + x_2_0 + w_1_3 - v_1_1_2_0_3 <= 2
h124: x_1_1 + x_2_0 + w_1_4 - v_1_1_2_0_4 <= 2
h125: x_1_1 + x_2_0 + w_1_5 - v_1_1_2_0_5 <= 2
h126: x_1_1 + x_2_1 + w_1_0 - v_1_1_2_1_0 <= 2
h127: x_1_1 + x_2_1 + w_1_1 - v_1_1_2_1_1 <= 2
h128: x_1_1 + x_2_1 + w_1_2 - v_1_1_2_1_2 <= 2
h129: x_1_1 + x_2_1 + w_1_3 - v_1_1_2_1_3 <= 2
h130: x_1_1 + x_2_1 + w_1_4 - v_1_1_2_1_4 <= 2
h131: x_1_1 + x_2_1 + w_1_5 - v_1_1_2_1_5 <= 2
h132: x_1_1 + x_2_2 + w_1_0 - v_1_1_2_2_0 <= 2
h133: x_1_1 + x_2_2 + w_1_1 - v_1_1_2_2_1 <= 2
h134: x_1_1 + x_2_2 + w_1_2 - v_1_1_2_2_2 <= 2
h135: x_1_1 + x_2_2 + w_1_3 - v_1_1_2_2_3 <= 2
h136: x_1_1 + x_2_2 + w_1_4 - v_1_1_2_2_4 <= 2
h137: x_1_1 + x_2_2 + w_1_5 - v_1_1_2_2_5 <= 2
h138: x_1_1 + x_2_3 + w_1_0 - v_1_1_2_3_0 <= 2
h139: x_1_1 + x_2_3 + w_1_1 - v_1_1_2_3_1 <= 2
h140: x_1_1 + x_2_3 + w_1_2 - v_1_1_2_3_2 <= 2
h141: x_1_1 + x_2_3 + w_1_3 - v_1_1_2_3_3 <= 2
h142: x_1_1 + x_2_3 + w_1_4 - v_1_1_2_3_4 <= 2
h143: x_1_1 + x_2_3 + w_1_5 - v_1_1_2_3_5 <= 2
h144: x_1_2 + x_2_0 + w_1_0 - v_1_2_2_0_0 <= 2
h145: x_1_2 + x_2_0 + w_1_1 - v_1_2_2_0_1 <= 2
h146: x_1_2 + x_2_0 + w_1_2 - v_1_2_2_0_2 <= 2
h147: x_1_2 + x_2_0 + w_1_3 - v_1_2_2_0_3 <= 2
h148: x_1_2 + x_2_0 + w_1_4 - v_1_2_2_0_4 <= 2
h149: x_1_2 + x_2_0 + w_1_5 - v_1_2_2_0_5 <= 2
h150: x_1_2 + x_2_1 + w_1_0 - v_1_2_2_1_0 <= 2
h151: x_1_2 + x_2_1 + w_1_1 - v_1_2_2_1_1 <= 2
h152: x_1_2 + x_2_1 + w_1_2 - v_1_2_2_1_2 <= 2
h153: x_1_2 + x_2_1 + w_1_3 - v_1_2_2_1_3 <= 2
h154: x_1_2 + x_2_1 + w_1_4 - v_1_2_2_1_4 <= 2
h155: x_1_2 + x_2_1 + w_1_5 - v_1_2_2_1_5 <= 2
h156: x_1_2 + x_2_2 + w_1_0 - v_1_2_2_2_0 <= 2
h157: x_1_2 + x_2_2 + w_1_1 - v_1_2_2_2_1 <= 2
h158: x_1_2 + x_2_2 + w_1_2 - v_1_2_2_2_2 <= 2
h159: x_1_2 + x_2_2 + w_1_3 - v_1_2_2_2_3 <= 2
h160: x_1_2 + x_2_2 + w_1_4 - v_1_2_2_2_4 <= 2
h161: x_1_2 + x_2_2 + w_1_5 - v_1_2_2_2_5 <= 2
h162: x_1_2 + x_2_3 + w_1_0 - v_1_2_2_3_0 <= 2
h163: x_1_2 + x_2_3 + w_1_1 - v_1_2_2_3_1 <= 2
h164: x_1_2 + x_2_3 + w_1_2 - v_1_2_2_3_2 <= 2
h165: x_1_2 + x_2_3 + w_1_3 - v_1_2_2_3_3 <= 2
h166: x_1_2 + x_2_3 + w_1_4 - v_1_2_2_3_4 <= 2
h167: x_1_2 + x_2_3 + w_1_5 - v_1_2_2_3_5 <= 2
h168: x_1_3 + x_2_0 + w_1_0 - v_1_3_2_0_0 <= 2
h169: x_1_3 + x_2_0 + w_1_1 - v_1_3_2_0_1 <= 2
h170: x_1_3 + x_2_0 + w_1_2 - v_1_3_2_0_2 <= 2
h171: x_1_3 + x_2_0 + w_1_3 - v_1_3_2_0_3 <= 2
h172: x_1_3 + x_2_0 + w_1_4 - v_1_3_2_0_4 <= 2
h173: x_1_3 + x_2_0 + w_1_5 - v_1_3_2_0_5 <= 2
h174: x_1_3 + x_2_1 + w_1_0 - v_1_3_2_1_0 <= 2
h175: x_1_3 + x_2_1 + w_1_1 - v_1_3_2_1_1 <= 2
h176: x_1_3 + x_2_1 + w_1_2 - v_1_3_2_1_2 <= 2
h177: x_1_3 + x_2_1 + w_1_3 - v_1_3_2_1_3 <= 2
h178: x_1_3 + x_2_1 + w_1_4 - v_1_3_2_1_4 <= 2
h179: x_1_3 + x_2_1 + w_1_5 - v_1_3_2_1_5 <= 2
h180: x_1_3 + x_2_2 + w_1_0 - v_1_3_2_2_0 <= 2
h181: x_1_3 + x_2_2 + w_1_1 - v_1_3_2_2_1 <= 2
h182: x_1_3 + x_2_2 + w_1_2 - v_1_3_2_2_2 <= 2
h183: x_1_3 + x_2_2 + w_1_3 - v_1_3_2_2_3 <= 2
h184: x_1_3 + x_2_2 + w_1_4 - v_1_3_2_2_4 <= 2
h185: x_1_3 + x_2_2 + w_1_5 - v_1_3_2_2_5 <= 2
h186: x_1_3 + x_2_3 + w_1_0 - v_1_3_2_3_0 <= 2
h187: x_1_3 + x_2_3 + w_1_1 - v_1_3_2_3_1 <= 2
h188: x_1_3 + x_2_3 + w_1_2 - v_1_3_2_3_2 <= 2
h189: x_1_3 + x_2_3 + w_1_3 - v_1_3_2_3_3 <= 2
h190: x_1_3 + x_2_3 + w_1_4 - v_1_3_2_3_4 <= 2
h191: x_1_3 + x_2_3 + w_1_5 - v_1_3_2_3_5 <= 2
p0: v_0_0_2_0_0 = 0
p1: v_0_0_2_0_1 = 0
p2: v_0_0_2_0_2 = 0
p3: v_0_0_2_0_3 = 0
p4: v_0_0_2_0_4 = 0
p5: v_0_0_2_0_5 = 0
p6: v_0_0_2_1_0 = 0
p7: v_0_0_2_1_1 = 0
p8: v_0_0_2_1_2 = 0
p9: v_0_0_2_1_3 = 0
p10: v_0_0_2_1_4 = 0
p11: v_0_0_2_1_5 = 0
p12: v_0_0_2_2_0 = 0
p13: v_0_0_2_2_1 = 0
p14: v_0_0_2_2_2 = 0
p15: v_0_0_2_2_3 = 0
p16: v_0_0_2_2_4 = 0
p17: v_0_0_2_2_5 = 0
p18: v_0_0_2_3_2 = 0
p19: v_0_0_2_3_3 = 0
p20: v_0_0_2_3_4 = 0
p21: v_0_0_2_3_5 = 0
p22: v_0_1_2_0_0 = 0
p23: v_0_1_2_0_1 = 0
p24: v_0_1_2_0_2 = 0
p25: v_0_1_2_0_3 = 0
p26: v_0_1_2_0_4 = 0
p27: v_0_1_2_0_5 = 0
p28: v_0_1_2_1_0 = 0
p29: v_0_1_2_1_1 = 0
p30: v_0_1_2_1_2 = 0
p31: v_0_1_2_1_3 = 0
p32: v_0_1_2_1_4 = 0
p33: v_0_1_2_1_5 = 0
p34: v_0_1_2_2_0 = 0
p35: v_0_1_2_2_1 = 0
p36: v_0_1_2_2_2 = 0
p37: v_0_1_2_2_3 = 0
p38: v_0_1_2_2_4 = 0
p39: v_0_1_2_2_5 = 0
p40: v_0_1_2_3_0 = 0
p41: v_0_1_2_3_1 = 0
p42: v_0_1_2_3_4 = 0
p43: v_0_1_2_3_5 = 0
p44: v_0_2_2_0_0 = 0
p45: v_0_2_2_0_1 = 0
p46: v_0_2_2_0_2 = 0
p47: v_0_2_2_0_3 = 0
p48: v_0_2_2_0_4 = 0
p49: v_0_2_2_0_5 = 0
p50: v_0_2_2_1_0 = 0
p51: v_0_2_2_1_1 = 0
p52: v_0_2_2_1_2 = 0
p53: v_0_2_2_1_3 = 0
p54: v_0_2_2_1_4 = 0
p55: v_0_2_2_1_5 = 0
p56: v_0_2_2_2_0 = 0
p57: v_0_2_2_2_1 = 0
p58: v_0_2_2_2_2 = 0
p59: v_0_2_2_2_3 = 0
p60: v_0_2_2_2_4 = 0
p61: v_0_2_2_2_5 = 0
p62: v_0_2_2_3_0 = 0
p63: v_0_2_2_3_1 = 0
p64: v_0_2_2_3_2 = 0
p65: v_0_2_2_3_3 = 0
p66: v_0_3_2_0_0 = 0
p67: v_0_3_2_0_1 = 0
p68: v_0_3_2_0_2 = 0
p69: v_0_3_2_0_3 = 0
p70: v_0_3_2_0_4 = 0
p71: v_0_3_2_0_5 = 0
p72: v_0_3_2_1_0 = 0
p73: v_0_3_2_1_1 = 0
p74: v_0_3_2_1_2 = 0
p75: v_0_3_2_1_3 = 0
p76: v_0_3_2_1_4 = 0
p77: v_0_3_2_1_5 = 0
p78: v_0_3_2_2_0 = 0
p79: v_0_3_2_2_1 = 0
p80: v_0_3_2_2_2 = 0
p81: v_0_3_2_2_3 = 0
p82: v_0_3_2_2_4 = 0
p83: v_0_3_2_2_5 = 0
p84: v_0_3_2_3_0 = 0
p85: v_0_3_2_3_1 = 0
p86: v_0_3_2_3_2 = 0
p87: v_0_3_2_3_3 = 0
p88: v_0_3_2_3_4 = 0
p89: v_0_3_2_3_5 = 0
p90: v_1_0_2_0_0 = 0
p91: v_1_0_2_0_1 = 0
p92: v_1_0_2_0_2 = 0
p93: v_1_0_2_0_3 = 0
p94: v_1_0_2_0_4 = 0
p95: v_1_0_2_0_5 = 0
p96: v_1_0_2_1_0 = 0
p97: v_1_0_2_1_1 = 0
p98: v_1_0_2_1_2 = 0
p99: v_1_0_2_1_3 = 0
p100: v_1_0_2_1_4 = 0
p101: v_1_0_2_1_5 = 0
p102: v_1_0_2_2_0 = 0
p103: v_1_0_2_2_1 = 0
p104: v_1_0_2_2_2 = 0
p105: v_1_0_2_2_3 = 0
p106: v_1_0_2_2_4 = 0
p107: v_1_0_2_2_5 = 0
p108: v_1_0_2_3_2 = 0
p109: v_1_0_2_3_3 = 0
p110: v_1_0_2_3_4 = 0
p111: v_1_0_2_3_5 = 0
p112: v_1_1_2_0_0 = 0
p113: v_1_1_2_0_1 = 0
p114: v_1_1_2_0_2 = 0
p115: v_1_1_2_0_3 = 0
p116: v_1_1_2_0_4 = 0
p117: v_1_1_2_0_5 = 0
p118: v_1_1_2_1_0 = 0
p119: v_1_1_2_1_1 = 0
p120: v_1_1_2_1_2 = 0
p121: v_1_1_2_1_3 = 0
p122: v_1_1_2_1_4 = 0
p123: v_1_1_2_1_5 = 0
p124: v_1_1_2_2_0 = 0
p125: v_1_1_2_2_1 = 0
p126: v_1_1_2_2_2 = 0
p127: v_1_1_2_2_3 = 0
p128: v_1_1_2_2_4 = 0
p129: v_1_1_2_2_5 = 0
p130: v_1_1_2_3_0 = 0
p131: v_1_1_2_3_1 = 0
p132: v_1_1_2_3_4 = 0
p133: v_1_1_2_3_5 = 0
p134: v_1_2_2_0_0 = 0
p135: v_1_2_2_0_1 = 0
p136: v_1_2_2_0_2 = 0
p137: v_1_2_2_0_3 = 0
p138: v_1_2_2_0_4 = 0
p139: v_1_2_2_0_5 = 0
p140: v_1_2_2_1_0 = 0
p141: v_1_2_2_1_1 = 0
p142: v_1_2_2_1_2 = 0
p143: v_1_2_2_1_3 = 0
p144: v_1_2_2_1_4 = 0
p145: v_1_2_2_1_5 = 0
p146: v_1_2_2_2_0 = 0
p147: v_1_2_2_2_1 = 0
p148: v_1_2_2_2_2 = 0
p149: v_1_2_2_2_3 = 0
p150: v_1_2_2_2_4 = 0
p151: v_1_2_2_2_5 = 0
p152: v_1_2_2_3_0 = 0
p153: v_1_2_2_3_1 = 0
p154: v_1_2_2_3_2 = 0
p155: v_1_2_2_3_3 = 0
p156: v_1_3_2_0_0 = 0
p157: v_1_3_2_0_1 = 0
p158: v_1_3_2_0_2 = 0
p159: v_1_3_2_0_3 = 0
p160: v_1_3_2_0_4 = 0
p161: v_1_3_2_0_5 = 0
p162: v_1_3_2_1_0 = 0
p163: v_1_3_2_1_1 = 0
p164: v_1_3_2_1_2 = 0
p165: v_1_3_2_1_3 = 0
p166: v_1_3_2_1_4 = 0
p167: v_1_3_2_1_5 = 0
p168: v_1_3_2_2_0 = 0
p169: v_1_3_2_2_1 = 0
p170: v_1_3_2_2_2 = 0
p171: v_1_3_2_2_3 = 0
p172: v_1_3_2_2_4 = 0
p173: v_1_3_2_2_5 = 0
p174: v_1_3_2_3_0 = 0
p175: v_1_3_2_3_1 = 0
p176: v_1_3_2_3_2 = 0
p177: v_1_3_2_3_3 = 0
p178: v_1_3_2_3_4 = 0
p179: v_1_3_2_3_5 = 0




Binary

x_0_0 x_0_1 x_0_2 x_0_3 x_1_0 x_1_1 x_1_2 x_1_3 x_2_0 x_2_1 x_2_2 x_2_3 w_0_0 w_0_1 w_0_2 w_0_3 w_0_4 w_0_5 w_1_0 w_1_1 w_1_2 w_1_3 w_1_4 w_1_5 w_2_0 w_2_1 w_2_2 w_2_3 w_2_4 w_2_5 v_0_0_2_0_0 v_0_0_2_0_1 v_0_0_2_0_2 v_0_0_2_0_3 v_0_0_2_0_4 v_0_0_2_0_5 v_0_0_2_1_0 v_0_0_2_1_1 v_0_0_2_1_2 v_0_0_2_1_3 v_0_0_2_1_4 v_0_0_2_1_5 v_0_0_2_2_0 v_0_0_2_2_1 v_0_0_2_2_2 v_0_0_2_2_3 v_0_0_2_2_4 v_0_0_2_2_5 v_0_0_2_3_0 v_0_0_2_3_1 v_0_0_2_3_2 v_0_0_2_3_3 v_0_0_2_3_4 v_0_0_2_3_5 v_0_1_2_0_0 v_0_1_2_0_1 v_0_1_2_0_2 v_0_1_2_0_3 v_0_1_2_0_4 v_0_1_2_0_5 v_0_1_2_1_0 v_0_1_2_1_1 v_0_1_2_1_2 v_0_1_2_1_3 v_0_1_2_1_4 v_0_1_2_1_5 v_0_1_2_2_0 v_0_1_2_2_1 v_0_1_2_2_2 v_0_1_2_2_3 v_0_1_2_2_4 v_0_1_2_2_5 v_0_1_2_3_0 v_0_1_2_3_1 v_0_1_2_3_2 v_0_1_2_3_3 v_0_1_2_3_4 v_0_1_2_3_5 v_0_2_2_0_0 v_0_2_2_0_1 v_0_2_2_0_2 v_0_2_2_0_3 v_0_2_2_0_4 v_0_2_2_0_5 v_0_2_2_1_0 v_0_2_2_1_1 v_0_2_2_1_2 v_0_2_2_1_3 v_0_2_2_1_4 v_0_2_2_1_5 v_0_2_2_2_0 v_0_2_2_2_1 v_0_2_2_2_2 v_0_2_2_2_3 v_0_2_2_2_4 v_0_2_2_2_5 v_0_2_2_3_0 v_0_2_2_3_1 v_0_2_2_3_2 v_0_2_2_3_3 v_0_2_2_3_4 v_0_2_2_3_5 v_0_3_2_0_0 v_0_3_2_0_1 v_0_3_2_0_2 v_0_3_2_0_3 v_0_3_2_0_4 v_0_3_2_0_5 v_0_3_2_1_0 v_0_3_2_1_1 v_0_3_2_1_2 v_0_3_2_1_3 v_0_3_2_1_4 v_0_3_2_1_5 v_0_3_2_2_0 v_0_3_2_2_1 v_0_3_2_2_2 v_0_3_2_2_3 v_0_3_2_2_4 v_0_3_2_2_5 v_0_3_2_3_0 v_0_3_2_3_1 v_0_3_2_3_2 v_0_3_2_3_3 v_0_3_2_3_4 v_0_3_2_3_5 v_1_0_2_0_0 v_1_0_2_0_1 v_1_0_2_0_2 v_1_0_2_0_3 v_1_0_2_0_4 v_1_0_2_0_5 v_1_0_2_1_0 v_1_0_2_1_1 v_1_0_2_1_2 v_1_0_2_1_3 v_1_0_2_1_4 v_1_0_2_1_5 v_1_0_2_2_0 v_1_0_2_2_1 v_1_0_2_2_2 v_1_0_2_2_3 v_1_0_2_2_4 v_1_0_2_2_5 v_1_0_2_3_0 v_1_0_2_3_1 v_1_0_2_3_2 v_1_0_2_3_3 v_1_0_2_3_4 v_1_0_2_3_5 v_1_1_2_0_0 v_1_1_2_0_1 v_1_1_2_0_2 v_1_1_2_0_3 v_1_1_2_0_4 v_1_1_2_0_5 v_1_1_2_1_0 v_1_1_2_1_1 v_1_1_2_1_2 v_1_1_2_1_3 v_1_1_2_1_4 v_1_1_2_1_5 v_1_1_2_2_0 v_1_1_2_2_1 v_1_1_2_2_2 v_1_1_2_2_3 v_1_1_2_2_4 v_1_1_2_2_5 v_1_1_2_3_0 v_1_1_2_3_1 v_1_1_2_3_2 v_1_1_2_3_3 v_1_1_2_3_4 v_1_1_2_3_5 v_1_2_2_0_0 v_1_2_2_0_1 v_1_2_2_0_2 v_1_2_2_0_3 v_1_2_2_0_4 v_1_2_2_0_5 v_1_2_2_1_0 v_1_2_2_1_1 v_1_2_2_1_2 v_1_2_2_1_3 v_1_2_2_1_4 v_1_2_2_1_5 v_1_2_2_2_0 v_1_2_2_2_1 v_1_2_2_2_2 v_1_2_2_2_3 v_1_2_2_2_4 v_1_2_2_2_5 v_1_2_2_3_0 v_1_2_2_3_1 v_1_2_2_3_2 v_1_2_2_3_3 v_1_2_2_3_4 v_1_2_2_3_5 v_1_3_2_0_0 v_1_3_2_0_1 v_1_3_2_0_2 v_1_3_2_0_3 v_1_3_2_0_4 v_1_3_2_0_5 v_1_3_2_1_0 v_1_3_2_1_1 v_1_3_2_1_2 v_1_3_2_1_3 v_1_3_2_1_4 v_1_3_2_1_5 v_1_3_2_2_0 v_1_3_2_2_1 v_1_3_2_2_2 v_1_3_2_2_3 v_1_3_2_2_4 v_1_3_2_2_5 v_1_3_2_3_0 v_1_3_2_3_1 v_1_3_2_3_2 v_1_3_2_3_3 v_1_3_2_3_4 v_1_3_2_3_5


General

 COST_0 CO2_0 TIME_0



End
